(set-logic QF_BV)
(declare-fun _substvar_438_ () (_ BitVec 16))
(declare-fun _substvar_659_ () (_ BitVec 8))
(declare-fun _substvar_670_ () (_ BitVec 32))
(declare-fun _substvar_642_ () (_ BitVec 8))
(declare-fun _substvar_652_ () (_ BitVec 8))
(declare-fun _substvar_674_ () (_ BitVec 32))
(assert (let ( (?v_33 ((_ zero_extend 24) _substvar_642_)) (?v_16 ((_ zero_extend 24) _substvar_652_)) (?v_23 ((_ zero_extend 16) _substvar_438_))) (let ((?v_26 (bvadd ?v_23 (bvsub (_ bv4294967295 32) ?v_16)))) (let ((?v_27 (bvadd ?v_26 (_ bv0 32)))) (let ((?v_30 (bvadd ?v_27 (_ bv0 32)))) (let ((?v_31 (bvadd ?v_30 (_ bv0 32)))) (let ((?v_34 (bvadd ?v_31 (_ bv0 32)))) (let ((?v_38 (bvadd ?v_34 (bvsub (_ bv4294967295 32) ?v_33)))) (let ((?v_42 (bvadd ?v_38 (_ bv0 32))) (?v_37 ((_ zero_extend 24) _substvar_659_))) (let ((?v_41 (bvadd ?v_42 (bvsub (_ bv4294967295 32) ?v_37)))) (let ((?v_8 (bvadd (bvadd (_ bv0 32) (_ bv4268253 32)) (_ bv0 32)))) (let ((?v_10 (bvadd ?v_8 (_ bv6 32)))) (let ((?v_12 (bvadd (bvadd ?v_10 (_ bv0 32)) (_ bv2 32)))) (let ((?v_14 (bvadd ?v_12 _substvar_674_))) (let ((?v_15 (bvadd ?v_14 (_ bv6 32)))) (let ((?v_17 (bvadd ?v_15 (_ bv0 32)))) (let ((?v_20 (bvadd ?v_17 (_ bv2 32)))) (let ((?v_3 (bvadd (bvadd (_ bv0 32) (_ bv4268262 32)) (_ bv0 32)))) (let ((?v_9 (bvadd (bvadd (bvadd (bvadd ?v_3 (_ bv15 32)) (_ bv0 32)) (_ bv2 32)) _substvar_674_))) (and true true true true true true (bvsle (_ bv1040 32) (bvsub (bvadd (bvadd (bvadd (bvadd (bvadd (bvadd (bvadd (bvadd (bvadd (bvadd (bvadd (bvadd (bvadd (bvadd (bvadd (bvadd (bvadd (bvadd ?v_9 (_ bv7 32)) _substvar_670_) (_ bv3 32)) ?v_16) (_ bv0 32)) (_ bv0 32)) (_ bv0 32)) (_ bv0 32)) (_ bv0 32)) (_ bv0 32)) (_ bv0 32)) (_ bv0 32)) (_ bv0 32)) ?v_33) (_ bv0 32)) (_ bv0 32)) (_ bv0 32)) ?v_37) (_ bv4268072 32))) true true true true true true true true true true true true true true true (bvult _substvar_670_ (_ bv8 32)) true true true true true true (bvule (bvsub (bvadd ?v_20 ?v_23) (_ bv4268232 32)) (_ bv846 32)) true true true true true true true true true true true true true true true true true true (= (bvadd ?v_41 (_ bv0 32)) (_ bv0 32)) true true true true true true true))))))))))))))))))))
(check-sat)
(exit)
